5
9
14 10 8 12 4
3 2 6 8 5 4 4 6 4
0 2 3 3 4 3 4 4 3 5
2 0 3 3 6 5 6 6 8 9  
3 3 0 4 3 4 7 7 2 2 
3 3 4 0 7 6 3 5 9 8 
4 6 3 7 0 3 6 6 4 4 
3 5 4 6 3 0 3 3 6 1 
4 6 7 3 6 3 0 2 3 7
4 6 7 5 6 3 2 0 8 9
4 6 7 5 6 3 2 2 0 4
5 6 3 7 6 3 6 6 4 0